p cnf 7230 18
1652 4022 4054 4120 6141 6260 0
-4022 -6260 0
-4054 -6260 0
1662 4058 6147 -6263 0
-1662 -6264 0
-4120 -6260 0
-6265 -6266 0
-4058 -6264 0
-6141 -6260 0
6263 6264 0
6261 6262 0
6143 -6262 0
-6143 -6261 0
-6147 -6264 0
-6149 6266 0
6149 -6266 0
6259 6260 0
-6259 -6260 0
